     Program PWSCF v.6.6 starts on 17Mar2021 at 11: 1:19

     Fft bands division:     nmany     =       1
     Waiting for input...
     Reading input from standard input
Warning: card &CELL ignored
Warning: card   CELL_DYNAMICS='BFGS', ignored
Warning: card   CELL_DOFREE='ALL', ignored
Warning: card / ignored

     Current dimensions of program PWSCF are:
     Max number of different atomic species (ntypx) = 10
     Max number of k-points (npk) =  40000
     Max angular momentum in pseudopotentials (lmaxx) =  3

     File /home/jesus/Documentos/Nanociencia_DFT/test.update deleted, as requested

     File /home/jesus/Documentos/Nanociencia_DFT/test.bfgs deleted, as requested

     Subspace diagonalization in iterative solution of the eigenvalue problem:
     a serial algorithm will be used

     bravais-lattice index     =            4
     lattice parameter (alat)  =       6.9920  a.u.
     unit-cell volume          =     960.0900 (a.u.)^3
     number of atoms/cell      =            2
     number of atomic types    =            1
     number of electrons       =         8.00
     number of Kohn-Sham states=            8
     kinetic-energy cutoff     =      30.0000  Ry
     charge density cutoff     =     240.0000  Ry
     convergence threshold     =      1.0E-06
     mixing beta               =       0.7000
     number of iterations used =            8  plain     mixing
     Exchange-correlation= PBE
                           (   1   4   3   4   0   0   0)
     nstep                     =            1

     celldm(1)=   6.991987  celldm(2)=   0.000000  celldm(3)=   3.243243
     celldm(4)=   0.000000  celldm(5)=   0.000000  celldm(6)=   0.000000

     crystal axes: (cart. coord. in units of alat)
               a(1) = (   1.000000   0.000000   0.000000 )
               a(2) = (  -0.500000   0.866025   0.000000 )
               a(3) = (   0.000000   0.000000   3.243243 )

     reciprocal axes: (cart. coord. in units 2 pi/alat)
               b(1) = (  1.000000  0.577350  0.000000 )
               b(2) = (  0.000000  1.154701  0.000000 )
               b(3) = (  0.000000  0.000000  0.308333 )

     PseudoPot. # 1 for Si read from file:
     /home/jesus/Documentos/Nanociencia_DFT/pseudopotenciales/Si.pbe-n-rrkjus_psl.1.0.0.UPF
     MD5 check sum: fa25574f73a70a4139f2adfbefec430c
     Pseudo is Ultrasoft + core correction, Zval =  4.0
     Generated using "atomic" code by A. Dal Corso v.6.3
     Using radial grid of 1141 points,  6 beta functions with:
                l(1) =   0
                l(2) =   0
                l(3) =   1
                l(4) =   1
                l(5) =   2
                l(6) =   2
     Q(r) pseudized with 0 coefficients

     atomic species   valence    mass     pseudopotential
        Si             4.00    28.08550     Si( 1.00)

      6 Sym. Ops. (no inversion) found

   Cartesian axes

     site n.     atom                  positions (alat units)
         1           Si  tau(   1) = (  -0.0000000   0.5773503   1.5952840  )
         2           Si  tau(   2) = (   0.5000000   0.2886751   1.7289949  )

     number of k points=    44  Methfessel-Paxton smearing, width (Ry)=  0.0100
                       cart. coord. in units 2pi/alat
        k(    1) = (   0.0000000   0.0000000   0.0000000), wk =   0.0058309
        k(    2) = (   0.0000000   0.0000000   0.0440476), wk =   0.0116618
        k(    3) = (   0.0000000   0.0000000   0.0880952), wk =   0.0116618
        k(    4) = (   0.0000000   0.0000000   0.1321429), wk =   0.0116618
        k(    5) = (   0.0000000   0.1649572   0.0000000), wk =   0.0349854
        k(    6) = (   0.0000000   0.1649572   0.0440476), wk =   0.0349854
        k(    7) = (   0.0000000   0.1649572   0.0880952), wk =   0.0349854
        k(    8) = (   0.0000000   0.1649572   0.1321429), wk =   0.0349854
        k(    9) = (   0.0000000   0.3299144   0.0000000), wk =   0.0349854
        k(   10) = (   0.0000000   0.3299144   0.0440476), wk =   0.0349854
        k(   11) = (   0.0000000   0.3299144   0.0880952), wk =   0.0349854
        k(   12) = (   0.0000000   0.3299144   0.1321429), wk =   0.0349854
        k(   13) = (   0.0000000   0.4948717   0.0000000), wk =   0.0349854
        k(   14) = (   0.0000000   0.4948717   0.0440476), wk =   0.0349854
        k(   15) = (   0.0000000   0.4948717   0.0880952), wk =   0.0349854
        k(   16) = (   0.0000000   0.4948717   0.1321429), wk =   0.0349854
        k(   17) = (   0.1428571   0.2474358   0.0000000), wk =   0.0349854
        k(   18) = (   0.1428571   0.2474358   0.0440476), wk =   0.0699708
        k(   19) = (   0.1428571   0.2474358   0.0880952), wk =   0.0699708
        k(   20) = (   0.1428571   0.2474358   0.1321429), wk =   0.0699708
        k(   21) = (   0.1428571   0.4123930   0.0000000), wk =   0.0699708
        k(   22) = (   0.1428571   0.4123930   0.0440476), wk =   0.0699708
        k(   23) = (   0.1428571   0.4123930   0.0880952), wk =   0.0699708
        k(   24) = (   0.1428571   0.4123930   0.1321429), wk =   0.0699708
        k(   25) = (   0.1428571   0.5773503   0.0000000), wk =   0.0349854
        k(   26) = (   0.1428571   0.5773503   0.0440476), wk =   0.0699708
        k(   27) = (   0.1428571   0.5773503   0.0880952), wk =   0.0699708
        k(   28) = (   0.1428571   0.5773503   0.1321429), wk =   0.0699708
        k(   29) = (   0.2857143   0.4948717   0.0000000), wk =   0.0349854
        k(   30) = (   0.2857143   0.4948717   0.0440476), wk =   0.0699708
        k(   31) = (   0.2857143   0.4948717   0.0880952), wk =   0.0699708
        k(   32) = (   0.2857143   0.4948717   0.1321429), wk =   0.0699708
        k(   33) = (   0.0000000  -0.1649572   0.0440476), wk =   0.0349854
        k(   34) = (   0.0000000  -0.1649572   0.0880952), wk =   0.0349854
        k(   35) = (   0.0000000  -0.1649572   0.1321429), wk =   0.0349854
        k(   36) = (   0.0000000  -0.3299144   0.0440476), wk =   0.0349854
        k(   37) = (   0.0000000  -0.3299144   0.0880952), wk =   0.0349854
        k(   38) = (   0.0000000  -0.3299144   0.1321429), wk =   0.0349854
        k(   39) = (   0.0000000  -0.4948717   0.0440476), wk =   0.0349854
        k(   40) = (   0.0000000  -0.4948717   0.0880952), wk =   0.0349854
        k(   41) = (   0.0000000  -0.4948717   0.1321429), wk =   0.0349854
        k(   42) = (  -0.1428571  -0.4123930   0.0440476), wk =   0.0699708
        k(   43) = (  -0.1428571  -0.4123930   0.0880952), wk =   0.0699708
        k(   44) = (  -0.1428571  -0.4123930   0.1321429), wk =   0.0699708

     Initial potential from superposition of free atoms

     starting charge    7.99888, renormalised to    8.00000

     negative rho (up, down):  2.360E-06 0.000E+00
     Starting wfcs are    8 randomized atomic wfcs

     Self-consistent Calculation

     iteration #  1     ecut=    30.00 Ry     beta= 0.70
     Davidson diagonalization with overlap
     ethr =  1.00E-02,  avg # of iterations =  4.9

     total energy              =     -22.72321326 Ry
     estimated scf accuracy    <       0.08452923 Ry

[...]

     negative rho (up, down):  1.950E-07 0.000E+00

[...]

     iteration #  4     ecut=    30.00 Ry     beta= 0.70
     Davidson diagonalization with overlap
     c_bands:  1 eigenvalues not converged
     ethr =  1.78E-06,  avg # of iterations =  4.8

[...]

     total energy              =     -22.73359608 Ry
     estimated scf accuracy    <       0.00000281 Ry

     iteration #  6     ecut=    30.00 Ry     beta= 0.70
     Davidson diagonalization with overlap
     ethr =  3.51E-08,  avg # of iterations =  1.2

[...]

     End of self-consistent calculation

          k = 0.0000 0.0000 0.0000 (  2631 PWs)   bands (ev):

   -13.0262  -4.9882  -2.4514  -2.4514   0.8439   1.7108   1.8122   1.8122

[...]

          k = 0.0000-0.4949 0.1321 (  2680 PWs)   bands (ev):

[...]

          k =-0.1429-0.4124 0.0440 (  2665 PWs)   bands (ev):

[...]

          k =-0.1429-0.4124 0.1321 (  2669 PWs)   bands (ev):

   -11.2537  -7.5061  -4.7791  -3.2328   0.2002   1.6385   3.3486   3.9884

     the Fermi energy is    -1.0071 ev

!    total energy              =     -22.73359655 Ry
     estimated scf accuracy    <       0.00000001 Ry
     smearing contrib. (-TS)   =       0.00015373 Ry
     internal energy E=F+TS    =     -22.73375028 Ry

     The total energy is F=E-TS. E is the sum of the following terms:
     one-electron contribution =     -41.35811789 Ry
     hartree contribution      =      22.07604163 Ry
     xc contribution           =     -12.26876070 Ry
     ewald contribution        =       8.81708669 Ry

     convergence has been achieved in   6 iterations

[...]

     Forces acting on atoms (cartesian axes, Ry/au):

     atom    1 type  1   force =     0.00000000    0.00000000   -0.01482962
     atom    2 type  1   force =     0.00000000    0.00000000    0.01482962

     Total force =     0.020972     Total SCF correction =     0.000040

     BFGS Geometry Optimization

     number of scf cycles    =   1
     number of bfgs steps    =   0

     energy   new            =     -22.7335965525 Ry

     new trust radius        =       0.0148296172 bohr

     The maximum number of steps has been reached.

     End of BFGS Geometry Optimization

ATOMIC_POSITIONS (crystal)
Si            0.3333333300        0.6666666700        0.4912252900
Si            0.6666666700        0.3333333300        0.5337607220

     Writing output data file /home/jesus/Documentos/Nanociencia_DFT/test.save/
     NEW-OLD atomic charge density approx. for the potential

     negative rho (up, down):  7.157E-07 0.000E+00

     Writing output data file /home/jesus/Documentos/Nanociencia_DFT/test.save/

     General routines

     Parallel routines

   This run was terminated on:  11: 1:37  17Mar2021

   JOB DONE.