     Program PWSCF v.6.6 starts on 17Mar2021 at 10:59:21

     Fft bands division:     nmany     =       1
     Waiting for input...
     Reading input from standard input
Warning: card &CELL ignored
Warning: card   CELL_DYNAMICS='BFGS', ignored
Warning: card   CELL_DOFREE='ALL', ignored
Warning: card / ignored

     Current dimensions of program PWSCF are:
     Max number of different atomic species (ntypx) = 10
     Max number of k-points (npk) =  40000
     Max angular momentum in pseudopotentials (lmaxx) =  3

     Subspace diagonalization in iterative solution of the eigenvalue problem:
     a serial algorithm will be used

     bravais-lattice index     =            4
     lattice parameter (alat)  =       5.6692  a.u.
     unit-cell volume          =     631.1767 (a.u.)^3
     number of atoms/cell      =            2
     number of atomic types    =            1
     number of electrons       =         8.00
     number of Kohn-Sham states=            8
     kinetic-energy cutoff     =      30.0000  Ry
     charge density cutoff     =     240.0000  Ry
     convergence threshold     =      1.0E-06
     mixing beta               =       0.7000
     number of iterations used =            8  plain     mixing
     Exchange-correlation= PBE
                           (   1   4   3   4   0   0   0)
     nstep                     =            1

     celldm(1)=   5.669178  celldm(2)=   0.000000  celldm(3)=   4.000000
     celldm(4)=   0.000000  celldm(5)=   0.000000  celldm(6)=   0.000000

     crystal axes: (cart. coord. in units of alat)
               a(1) = (   1.000000   0.000000   0.000000 )
               a(2) = (  -0.500000   0.866025   0.000000 )
               a(3) = (   0.000000   0.000000   4.000000 )

     reciprocal axes: (cart. coord. in units 2 pi/alat)
               b(1) = (  1.000000  0.577350  0.000000 )
               b(2) = (  0.000000  1.154701  0.000000 )
               b(3) = (  0.000000  0.000000  0.250000 )

     PseudoPot. # 1 for Si read from file:
     /home/jesus/Documentos/Nanociencia_DFT/pseudopotenciales/Si.pbe-n-rrkjus_psl.1.0.0.UPF
     MD5 check sum: fa25574f73a70a4139f2adfbefec430c
     Pseudo is Ultrasoft + core correction, Zval =  4.0
     Generated using "atomic" code by A. Dal Corso v.6.3
     Using radial grid of 1141 points,  6 beta functions with:
                l(1) =   0
                l(2) =   0
                l(3) =   1
                l(4) =   1
                l(5) =   2
                l(6) =   2
     Q(r) pseudized with 0 coefficients

     atomic species   valence    mass     pseudopotential
        Si             4.00    28.08550     Si( 1.00)

      6 Sym. Ops. (no inversion) found

   Cartesian axes

     site n.     atom                  positions (alat units)
         1           Si  tau(   1) = (  -0.0000000   0.5773503   1.9675170  )
         2           Si  tau(   2) = (   0.5000000   0.2886751   2.1324271  )

     number of k points=    44  Methfessel-Paxton smearing, width (Ry)=  0.0100
                       cart. coord. in units 2pi/alat
        k(    1) = (   0.0000000   0.0000000   0.0000000), wk =   0.0058309
        k(    2) = (   0.0000000   0.0000000   0.0357143), wk =   0.0116618
        k(    3) = (   0.0000000   0.0000000   0.0714286), wk =   0.0116618
        k(    4) = (   0.0000000   0.0000000   0.1071429), wk =   0.0116618
        k(    5) = (   0.0000000   0.1649572   0.0000000), wk =   0.0349854
        k(    6) = (   0.0000000   0.1649572   0.0357143), wk =   0.0349854
        k(    7) = (   0.0000000   0.1649572   0.0714286), wk =   0.0349854
        k(    8) = (   0.0000000   0.1649572   0.1071429), wk =   0.0349854
        k(    9) = (   0.0000000   0.3299144   0.0000000), wk =   0.0349854
        k(   10) = (   0.0000000   0.3299144   0.0357143), wk =   0.0349854
        k(   11) = (   0.0000000   0.3299144   0.0714286), wk =   0.0349854
        k(   12) = (   0.0000000   0.3299144   0.1071429), wk =   0.0349854
        k(   13) = (   0.0000000   0.4948717   0.0000000), wk =   0.0349854
        k(   14) = (   0.0000000   0.4948717   0.0357143), wk =   0.0349854
        k(   15) = (   0.0000000   0.4948717   0.0714286), wk =   0.0349854
        k(   16) = (   0.0000000   0.4948717   0.1071429), wk =   0.0349854
        k(   17) = (   0.1428571   0.2474358   0.0000000), wk =   0.0349854
        k(   18) = (   0.1428571   0.2474358   0.0357143), wk =   0.0699708
        k(   19) = (   0.1428571   0.2474358   0.0714286), wk =   0.0699708
        k(   20) = (   0.1428571   0.2474358   0.1071429), wk =   0.0699708
        k(   21) = (   0.1428571   0.4123930   0.0000000), wk =   0.0699708
        k(   22) = (   0.1428571   0.4123930   0.0357143), wk =   0.0699708
        k(   23) = (   0.1428571   0.4123930   0.0714286), wk =   0.0699708
        k(   24) = (   0.1428571   0.4123930   0.1071429), wk =   0.0699708
        k(   25) = (   0.1428571   0.5773503   0.0000000), wk =   0.0349854
        k(   26) = (   0.1428571   0.5773503   0.0357143), wk =   0.0699708
        k(   27) = (   0.1428571   0.5773503   0.0714286), wk =   0.0699708
        k(   28) = (   0.1428571   0.5773503   0.1071429), wk =   0.0699708
        k(   29) = (   0.2857143   0.4948717   0.0000000), wk =   0.0349854
        k(   30) = (   0.2857143   0.4948717   0.0357143), wk =   0.0699708
        k(   31) = (   0.2857143   0.4948717   0.0714286), wk =   0.0699708
        k(   32) = (   0.2857143   0.4948717   0.1071429), wk =   0.0699708
        k(   33) = (   0.0000000  -0.1649572   0.0357143), wk =   0.0349854
        k(   34) = (   0.0000000  -0.1649572   0.0714286), wk =   0.0349854
        k(   35) = (   0.0000000  -0.1649572   0.1071429), wk =   0.0349854
        k(   36) = (   0.0000000  -0.3299144   0.0357143), wk =   0.0349854
        k(   37) = (   0.0000000  -0.3299144   0.0714286), wk =   0.0349854
        k(   38) = (   0.0000000  -0.3299144   0.1071429), wk =   0.0349854
        k(   39) = (   0.0000000  -0.4948717   0.0357143), wk =   0.0349854
        k(   40) = (   0.0000000  -0.4948717   0.0714286), wk =   0.0349854
        k(   41) = (   0.0000000  -0.4948717   0.1071429), wk =   0.0349854
        k(   42) = (  -0.1428571  -0.4123930   0.0357143), wk =   0.0699708
        k(   43) = (  -0.1428571  -0.4123930   0.0714286), wk =   0.0699708
        k(   44) = (  -0.1428571  -0.4123930   0.1071429), wk =   0.0699708

     Initial potential from superposition of free atoms

     starting charge    7.99888, renormalised to    8.00000

     negative rho (up, down):  1.425E-06 0.000E+00
     Starting wfcs are    8 randomized atomic wfcs

     Self-consistent Calculation

     iteration #  1     ecut=    30.00 Ry     beta= 0.70
     Davidson diagonalization with overlap
     ethr =  1.00E-02,  avg # of iterations =  5.5

     total energy              =     -22.05037489 Ry
     estimated scf accuracy    <       0.36151322 Ry

[...]

     negative rho (up, down):  6.308E-08 0.000E+00

[...]

     iteration #  4     ecut=    30.00 Ry     beta= 0.70
     Davidson diagonalization with overlap
     c_bands:  1 eigenvalues not converged
     ethr =  2.33E-05,  avg # of iterations =  8.8

[...]

     total energy              =     -22.13376152 Ry
     estimated scf accuracy    <       0.00000365 Ry

     iteration #  7     ecut=    30.00 Ry     beta= 0.70
     Davidson diagonalization with overlap
     ethr =  4.56E-08,  avg # of iterations =  1.6

[...]

     End of self-consistent calculation

          k = 0.0000 0.0000 0.0000 (  1731 PWs)   bands (ev):

   -14.3287  -5.5348   1.2643   1.2643   1.3535   4.0009   4.2236   4.9302

[...]

          k = 0.0000-0.4949 0.1071 (  1760 PWs)   bands (ev):

[...]

          k =-0.1429-0.4124 0.0357 (  1747 PWs)   bands (ev):

[...]

          k =-0.1429-0.4124 0.1071 (  1762 PWs)   bands (ev):

   -11.4359  -5.9008  -3.2416  -2.6930   2.6300   4.7010   5.5424   6.5096

     the Fermi energy is     0.4654 ev

!    total energy              =     -22.13376217 Ry
     estimated scf accuracy    <       0.00000021 Ry
     smearing contrib. (-TS)   =      -0.00018039 Ry
     internal energy E=F+TS    =     -22.13358178 Ry

     The total energy is F=E-TS. E is the sum of the following terms:
     one-electron contribution =     -63.87544071 Ry
     hartree contribution      =      34.09644576 Ry
     xc contribution           =     -13.04377885 Ry
     ewald contribution        =      20.68919202 Ry

     convergence has been achieved in   7 iterations

[...]

     Forces acting on atoms (cartesian axes, Ry/au):

     atom    1 type  1   force =     0.00000000    0.00000000   -0.38606455
     atom    2 type  1   force =     0.00000000    0.00000000    0.38606455

     Total force =     0.545978     Total SCF correction =     0.000283

     BFGS Geometry Optimization

     number of scf cycles    =   1
     number of bfgs steps    =   0

     energy   new            =     -22.1337621701 Ry

     new trust radius        =       0.3860645459 bohr

     The maximum number of steps has been reached.

     End of BFGS Geometry Optimization

ATOMIC_POSITIONS (crystal)
Si            0.3333333300        0.6666666700        0.4748545347
Si            0.6666666700        0.3333333300        0.5501314773

     Writing output data file /home/jesus/Documentos/Nanociencia_DFT/test.save/
     NEW-OLD atomic charge density approx. for the potential

     negative rho (up, down):  9.865E-07 0.000E+00

     Writing output data file /home/jesus/Documentos/Nanociencia_DFT/test.save/

     General routines

     Parallel routines

   This run was terminated on:  10:59:38  17Mar2021

   JOB DONE.