     Program PWSCF v.6.6 starts on 17Mar2021 at  9:46:49

     Fft bands division:     nmany     =       1
     Waiting for input...
     Reading input from standard input
Warning: card &CELL ignored
Warning: card   CELL_DYNAMICS='BFGS', ignored
Warning: card   CELL_DOFREE='ALL', ignored
Warning: card / ignored

     Current dimensions of program PWSCF are:
     Max number of different atomic species (ntypx) = 10
     Max number of k-points (npk) =  40000
     Max angular momentum in pseudopotentials (lmaxx) =  3

     Subspace diagonalization in iterative solution of the eigenvalue problem:
     a serial algorithm will be used

     bravais-lattice index     =            4
     lattice parameter (alat)  =       7.2764  a.u.
     unit-cell volume          =    1039.7733 (a.u.)^3
     number of atoms/cell      =            2
     number of atomic types    =            1
     number of electrons       =         8.00
     number of Kohn-Sham states=            8
     kinetic-energy cutoff     =      30.0000  Ry
     charge density cutoff     =     240.0000  Ry
     convergence threshold     =      1.0E-06
     mixing beta               =       0.7000
     number of iterations used =            8  plain     mixing
     Exchange-correlation= PBE
                           (   1   4   3   4   0   0   0)

     celldm(1)=   7.276356  celldm(2)=   0.000000  celldm(3)=   3.116493
     celldm(4)=   0.000000  celldm(5)=   0.000000  celldm(6)=   0.000000

     crystal axes: (cart. coord. in units of alat)
               a(1) = (   1.000000   0.000000   0.000000 )
               a(2) = (  -0.500000   0.866025   0.000000 )
               a(3) = (   0.000000   0.000000   3.116493 )

     reciprocal axes: (cart. coord. in units 2 pi/alat)
               b(1) = (  1.000000  0.577350  0.000000 )
               b(2) = (  0.000000  1.154701  0.000000 )
               b(3) = (  0.000000  0.000000  0.320873 )

     PseudoPot. # 1 for Si read from file:
     /home/jesus/Documentos/Nanociencia_DFT/pseudopotenciales/Si.pbe-n-rrkjus_psl.1.0.0.UPF
     MD5 check sum: fa25574f73a70a4139f2adfbefec430c
     Pseudo is Ultrasoft + core correction, Zval =  4.0
     Generated using "atomic" code by A. Dal Corso v.6.3
     Using radial grid of 1141 points,  6 beta functions with:
                l(1) =   0
                l(2) =   0
                l(3) =   1
                l(4) =   1
                l(5) =   2
                l(6) =   2
     Q(r) pseudized with 0 coefficients

     atomic species   valence    mass     pseudopotential
        Si             4.00    28.08550     Si( 1.00)

      6 Sym. Ops. (no inversion) found

   Cartesian axes

     site n.     atom                  positions (alat units)
         1           Si  tau(   1) = (  -0.0000000   0.5773503   1.5329382  )
         2           Si  tau(   2) = (   0.5000000   0.2886751   1.6614235  )

     number of k points=    88  Methfessel-Paxton smearing, width (Ry)=  0.0100
                       cart. coord. in units 2pi/alat
        k(    1) = (   0.0000000   0.0000000   0.0000000), wk =   0.0027435
        k(    2) = (   0.0000000   0.0000000   0.0356526), wk =   0.0054870
        k(    3) = (   0.0000000   0.0000000   0.0713052), wk =   0.0054870
        k(    4) = (   0.0000000   0.0000000   0.1069578), wk =   0.0054870
        k(    5) = (   0.0000000   0.0000000   0.1426104), wk =   0.0054870
        k(    6) = (   0.0000000   0.1283001   0.0000000), wk =   0.0164609
        k(    7) = (   0.0000000   0.1283001   0.0356526), wk =   0.0164609
        k(    8) = (   0.0000000   0.1283001   0.0713052), wk =   0.0164609
        k(    9) = (   0.0000000   0.1283001   0.1069578), wk =   0.0164609
        k(   10) = (   0.0000000   0.1283001   0.1426104), wk =   0.0164609
        k(   11) = (   0.0000000   0.2566001   0.0000000), wk =   0.0164609
        k(   12) = (   0.0000000   0.2566001   0.0356526), wk =   0.0164609
        k(   13) = (   0.0000000   0.2566001   0.0713052), wk =   0.0164609
        k(   14) = (   0.0000000   0.2566001   0.1069578), wk =   0.0164609
        k(   15) = (   0.0000000   0.2566001   0.1426104), wk =   0.0164609
        k(   16) = (   0.0000000   0.3849002   0.0000000), wk =   0.0164609
        k(   17) = (   0.0000000   0.3849002   0.0356526), wk =   0.0164609
        k(   18) = (   0.0000000   0.3849002   0.0713052), wk =   0.0164609
        k(   19) = (   0.0000000   0.3849002   0.1069578), wk =   0.0164609
        k(   20) = (   0.0000000   0.3849002   0.1426104), wk =   0.0164609
        k(   21) = (   0.0000000   0.5132002   0.0000000), wk =   0.0164609
        k(   22) = (   0.0000000   0.5132002   0.0356526), wk =   0.0164609
        k(   23) = (   0.0000000   0.5132002   0.0713052), wk =   0.0164609
        k(   24) = (   0.0000000   0.5132002   0.1069578), wk =   0.0164609
        k(   25) = (   0.0000000   0.5132002   0.1426104), wk =   0.0164609
        k(   26) = (   0.1111111   0.1924501   0.0000000), wk =   0.0164609
        k(   27) = (   0.1111111   0.1924501   0.0356526), wk =   0.0329218
        k(   28) = (   0.1111111   0.1924501   0.0713052), wk =   0.0329218
        k(   29) = (   0.1111111   0.1924501   0.1069578), wk =   0.0329218
        k(   30) = (   0.1111111   0.1924501   0.1426104), wk =   0.0329218
        k(   31) = (   0.1111111   0.3207501   0.0000000), wk =   0.0329218
        k(   32) = (   0.1111111   0.3207501   0.0356526), wk =   0.0329218
        k(   33) = (   0.1111111   0.3207501   0.0713052), wk =   0.0329218
        k(   34) = (   0.1111111   0.3207501   0.1069578), wk =   0.0329218
        k(   35) = (   0.1111111   0.3207501   0.1426104), wk =   0.0329218
        k(   36) = (   0.1111111   0.4490502   0.0000000), wk =   0.0329218
        k(   37) = (   0.1111111   0.4490502   0.0356526), wk =   0.0329218
        k(   38) = (   0.1111111   0.4490502   0.0713052), wk =   0.0329218
        k(   39) = (   0.1111111   0.4490502   0.1069578), wk =   0.0329218
        k(   40) = (   0.1111111   0.4490502   0.1426104), wk =   0.0329218
        k(   41) = (   0.1111111   0.5773503   0.0000000), wk =   0.0164609
        k(   42) = (   0.1111111   0.5773503   0.0356526), wk =   0.0329218
        k(   43) = (   0.1111111   0.5773503   0.0713052), wk =   0.0329218
        k(   44) = (   0.1111111   0.5773503   0.1069578), wk =   0.0329218
        k(   45) = (   0.1111111   0.5773503   0.1426104), wk =   0.0329218
        k(   46) = (   0.2222222   0.3849002   0.0000000), wk =   0.0164609
        k(   47) = (   0.2222222   0.3849002   0.0356526), wk =   0.0329218
        k(   48) = (   0.2222222   0.3849002   0.0713052), wk =   0.0329218
        k(   49) = (   0.2222222   0.3849002   0.1069578), wk =   0.0329218
        k(   50) = (   0.2222222   0.3849002   0.1426104), wk =   0.0329218
        k(   51) = (   0.2222222   0.5132002   0.0000000), wk =   0.0329218
        k(   52) = (   0.2222222   0.5132002   0.0356526), wk =   0.0329218
        k(   53) = (   0.2222222   0.5132002   0.0713052), wk =   0.0329218
        k(   54) = (   0.2222222   0.5132002   0.1069578), wk =   0.0329218
        k(   55) = (   0.2222222   0.5132002   0.1426104), wk =   0.0329218
        k(   56) = (   0.3333333   0.5773503   0.0000000), wk =   0.0054870
        k(   57) = (   0.3333333   0.5773503   0.0356526), wk =   0.0109739
        k(   58) = (   0.3333333   0.5773503   0.0713052), wk =   0.0109739
        k(   59) = (   0.3333333   0.5773503   0.1069578), wk =   0.0109739
        k(   60) = (   0.3333333   0.5773503   0.1426104), wk =   0.0109739
[...]
        k(   74) = (   0.0000000  -0.5132002   0.0713052), wk =   0.0164609
        k(   75) = (   0.0000000  -0.5132002   0.1069578), wk =   0.0164609
        k(   76) = (   0.0000000  -0.5132002   0.1426104), wk =   0.0164609
        k(   77) = (  -0.1111111  -0.3207501   0.0356526), wk =   0.0329218
        k(   78) = (  -0.1111111  -0.3207501   0.0713052), wk =   0.0329218
        k(   79) = (  -0.1111111  -0.3207501   0.1069578), wk =   0.0329218
        k(   80) = (  -0.1111111  -0.3207501   0.1426104), wk =   0.0329218
        k(   81) = (  -0.1111111  -0.4490502   0.0356526), wk =   0.0329218
        k(   82) = (  -0.1111111  -0.4490502   0.0713052), wk =   0.0329218
        k(   83) = (  -0.1111111  -0.4490502   0.1069578), wk =   0.0329218
        k(   84) = (  -0.1111111  -0.4490502   0.1426104), wk =   0.0329218
        k(   85) = (  -0.2222222  -0.5132002   0.0356526), wk =   0.0329218
        k(   86) = (  -0.2222222  -0.5132002   0.0713052), wk =   0.0329218
        k(   87) = (  -0.2222222  -0.5132002   0.1069578), wk =   0.0329218
        k(   88) = (  -0.2222222  -0.5132002   0.1426104), wk =   0.0329218

     Initial potential from superposition of free atoms

     starting charge    7.99888, renormalised to    8.00000

     negative rho (up, down):  2.447E-06 0.000E+00
     Starting wfcs are    8 randomized atomic wfcs

     Self-consistent Calculation

     iteration #  1     ecut=    30.00 Ry     beta= 0.70
     Davidson diagonalization with overlap
     ethr =  1.00E-02,  avg # of iterations =  4.3

     Threshold (ethr) on eigenvalues was too large:
     Diagonalizing with lowered threshold

     Davidson diagonalization with overlap
     ethr =  7.69E-04,  avg # of iterations =  2.1

     negative rho (up, down):  3.787E-07 0.000E+00

     total energy              =     -22.73792044 Ry
     estimated scf accuracy    <       0.06740533 Ry

[...]

     iteration #  3     ecut=    30.00 Ry     beta= 0.70
     Davidson diagonalization with overlap
     c_bands:  1 eigenvalues not converged
     ethr =  2.35E-05,  avg # of iterations =  8.1

[...]

     iteration #  4     ecut=    30.00 Ry     beta= 0.70
     Davidson diagonalization with overlap
     c_bands:  1 eigenvalues not converged
     ethr =  1.47E-06,  avg # of iterations =  5.3

[...]

     total energy              =     -22.74529341 Ry
     estimated scf accuracy    <       0.00000291 Ry

     iteration #  6     ecut=    30.00 Ry     beta= 0.70
     Davidson diagonalization with overlap
     ethr =  2.90E-08,  avg # of iterations =  1.1

     negative rho (up, down):  5.063E-07 0.000E+00

     End of self-consistent calculation

          k = 0.0000 0.0000 0.0000 (  2895 PWs)   bands (ev):

   -12.7915  -4.9298  -2.8716  -2.8716   0.3240   0.7356   1.3450   1.3450

[...]

          k = 0.0000-0.5132 0.1426 (  2885 PWs)   bands (ev):

[...]

          k =-0.1111-0.3208 0.0357 (  2885 PWs)   bands (ev):

[...]

          k =-0.2222-0.5132 0.1426 (  2870 PWs)   bands (ev):

   -10.3059  -8.7591  -5.7394  -2.4732  -1.0461   2.2589   2.6763   4.2055

     the Fermi energy is    -1.7297 ev

!    total energy              =     -22.74529387 Ry
     estimated scf accuracy    <       0.00000006 Ry
     smearing contrib. (-TS)   =      -0.00013931 Ry
     internal energy E=F+TS    =     -22.74515456 Ry

     The total energy is F=E-TS. E is the sum of the following terms:
     one-electron contribution =     -38.14530887 Ry
     hartree contribution      =      20.36417934 Ry
     xc contribution           =     -12.14772224 Ry
     ewald contribution        =       7.18369722 Ry

     convergence has been achieved in   6 iterations

     Writing output data file /home/jesus/Documentos/Nanociencia_DFT/test.save/

     General routines

     Parallel routines

   This run was terminated on:   9:47:23  17Mar2021

   JOB DONE.