     Program PWSCF v.6.6 starts on 17Mar2021 at  9:45:47

     Fft bands division:     nmany     =       1
     Waiting for input...
     Reading input from standard input
Warning: card &CELL ignored
Warning: card   CELL_DYNAMICS='BFGS', ignored
Warning: card   CELL_DOFREE='ALL', ignored
Warning: card / ignored

     Current dimensions of program PWSCF are:
     Max number of different atomic species (ntypx) = 10
     Max number of k-points (npk) =  40000
     Max angular momentum in pseudopotentials (lmaxx) =  3

     Subspace diagonalization in iterative solution of the eigenvalue problem:
     a serial algorithm will be used

     bravais-lattice index     =            4
     lattice parameter (alat)  =       7.2764  a.u.
     unit-cell volume          =    1039.7733 (a.u.)^3
     number of atoms/cell      =            2
     number of atomic types    =            1
     number of electrons       =         8.00
     number of Kohn-Sham states=            8
     kinetic-energy cutoff     =      30.0000  Ry
     charge density cutoff     =     240.0000  Ry
     convergence threshold     =      1.0E-06
     mixing beta               =       0.7000
     number of iterations used =            8  plain     mixing
     Exchange-correlation= PBE
                           (   1   4   3   4   0   0   0)

     celldm(1)=   7.276356  celldm(2)=   0.000000  celldm(3)=   3.116493
     celldm(4)=   0.000000  celldm(5)=   0.000000  celldm(6)=   0.000000

     crystal axes: (cart. coord. in units of alat)
               a(1) = (   1.000000   0.000000   0.000000 )
               a(2) = (  -0.500000   0.866025   0.000000 )
               a(3) = (   0.000000   0.000000   3.116493 )

     reciprocal axes: (cart. coord. in units 2 pi/alat)
               b(1) = (  1.000000  0.577350  0.000000 )
               b(2) = (  0.000000  1.154701  0.000000 )
               b(3) = (  0.000000  0.000000  0.320873 )

     PseudoPot. # 1 for Si read from file:
     /home/jesus/Documentos/Nanociencia_DFT/pseudopotenciales/Si.pbe-n-rrkjus_psl.1.0.0.UPF
     MD5 check sum: fa25574f73a70a4139f2adfbefec430c
     Pseudo is Ultrasoft + core correction, Zval =  4.0
     Generated using "atomic" code by A. Dal Corso v.6.3
     Using radial grid of 1141 points,  6 beta functions with:
                l(1) =   0
                l(2) =   0
                l(3) =   1
                l(4) =   1
                l(5) =   2
                l(6) =   2
     Q(r) pseudized with 0 coefficients

     atomic species   valence    mass     pseudopotential
        Si             4.00    28.08550     Si( 1.00)

      6 Sym. Ops. (no inversion) found

   Cartesian axes

     site n.     atom                  positions (alat units)
         1           Si  tau(   1) = (  -0.0000000   0.5773503   1.5329382  )
         2           Si  tau(   2) = (   0.5000000   0.2886751   1.6614235  )

     number of k points=    34  Methfessel-Paxton smearing, width (Ry)=  0.0100
                       cart. coord. in units 2pi/alat
        k(    1) = (   0.0000000   0.0000000   0.0000000), wk =   0.0092593
        k(    2) = (   0.0000000   0.0000000   0.0534789), wk =   0.0185185
        k(    3) = (   0.0000000   0.0000000   0.1069578), wk =   0.0185185
        k(    4) = (   0.0000000   0.0000000  -0.1604367), wk =   0.0092593
        k(    5) = (   0.0000000   0.1924501   0.0000000), wk =   0.0555556
        k(    6) = (   0.0000000   0.1924501   0.0534789), wk =   0.0555556
        k(    7) = (   0.0000000   0.1924501   0.1069578), wk =   0.0555556
        k(    8) = (   0.0000000   0.1924501  -0.1604367), wk =   0.0555556
        k(    9) = (   0.0000000   0.3849002   0.0000000), wk =   0.0555556
        k(   10) = (   0.0000000   0.3849002   0.0534789), wk =   0.0555556
        k(   11) = (   0.0000000   0.3849002   0.1069578), wk =   0.0555556
        k(   12) = (   0.0000000   0.3849002  -0.1604367), wk =   0.0555556
        k(   13) = (   0.0000000  -0.5773503   0.0000000), wk =   0.0277778
        k(   14) = (   0.0000000  -0.5773503   0.0534789), wk =   0.0555556
        k(   15) = (   0.0000000  -0.5773503   0.1069578), wk =   0.0555556
        k(   16) = (   0.0000000  -0.5773503  -0.1604367), wk =   0.0277778
        k(   17) = (   0.1666667   0.2886751   0.0000000), wk =   0.0555556
        k(   18) = (   0.1666667   0.2886751   0.0534789), wk =   0.1111111
        k(   19) = (   0.1666667   0.2886751   0.1069578), wk =   0.1111111
        k(   20) = (   0.1666667   0.2886751  -0.1604367), wk =   0.0555556
        k(   21) = (   0.1666667   0.4811252   0.0000000), wk =   0.1111111
        k(   22) = (   0.1666667   0.4811252   0.0534789), wk =   0.1111111
        k(   23) = (   0.1666667   0.4811252   0.1069578), wk =   0.1111111
        k(   24) = (   0.1666667   0.4811252  -0.1604367), wk =   0.1111111
        k(   25) = (   0.3333333   0.5773503   0.0000000), wk =   0.0185185
        k(   26) = (   0.3333333   0.5773503   0.0534789), wk =   0.0370370
        k(   27) = (   0.3333333   0.5773503   0.1069578), wk =   0.0370370
        k(   28) = (   0.3333333   0.5773503  -0.1604367), wk =   0.0185185
        k(   29) = (   0.0000000  -0.1924501   0.0534789), wk =   0.0555556
        k(   30) = (   0.0000000  -0.1924501   0.1069578), wk =   0.0555556
        k(   31) = (   0.0000000  -0.3849002   0.0534789), wk =   0.0555556
        k(   32) = (   0.0000000  -0.3849002   0.1069578), wk =   0.0555556
        k(   33) = (  -0.1666667  -0.4811252   0.0534789), wk =   0.1111111
        k(   34) = (  -0.1666667  -0.4811252   0.1069578), wk =   0.1111111

     Initial potential from superposition of free atoms

     starting charge    7.99888, renormalised to    8.00000

     negative rho (up, down):  2.447E-06 0.000E+00
     Starting wfcs are    8 randomized atomic wfcs

     Self-consistent Calculation

     iteration #  1     ecut=    30.00 Ry     beta= 0.70
     Davidson diagonalization with overlap
     ethr =  1.00E-02,  avg # of iterations =  4.2

     Threshold (ethr) on eigenvalues was too large:
     Diagonalizing with lowered threshold

     Davidson diagonalization with overlap
     ethr =  7.75E-04,  avg # of iterations =  1.4

     negative rho (up, down):  4.088E-07 0.000E+00

     total energy              =     -22.73620802 Ry
     estimated scf accuracy    <       0.06778956 Ry

[...]

     iteration #  4     ecut=    30.00 Ry     beta= 0.70
     Davidson diagonalization with overlap
     c_bands:  1 eigenvalues not converged
     c_bands:  1 eigenvalues not converged
     ethr =  1.48E-06,  avg # of iterations =  6.5

[...]

     total energy              =     -22.74359499 Ry
     estimated scf accuracy    <       0.00000466 Ry

     iteration #  6     ecut=    30.00 Ry     beta= 0.70
     Davidson diagonalization with overlap
     ethr =  3.89E-08,  avg # of iterations =  1.1

     negative rho (up, down):  5.006E-07 0.000E+00

     End of self-consistent calculation

          k = 0.0000 0.0000 0.0000 (  2895 PWs)   bands (ev):

   -12.7876  -4.9274  -2.8669  -2.8669   0.3274   0.7363   1.3481   1.3481

[...]

          k = 0.0000-0.3849 0.1070 (  2888 PWs)   bands (ev):

[...]

          k =-0.1667-0.4811 0.0535 (  2872 PWs)   bands (ev):

[...]

          k =-0.1667-0.4811 0.1070 (  2885 PWs)   bands (ev):

   -10.6770  -8.4095  -5.2813  -2.8255  -0.7348   1.3101   3.0991   3.8149

     the Fermi energy is    -1.7271 ev

!    total energy              =     -22.74359562 Ry
     estimated scf accuracy    <       0.00000006 Ry
     smearing contrib. (-TS)   =      -0.00031344 Ry
     internal energy E=F+TS    =     -22.74328219 Ry

     The total energy is F=E-TS. E is the sum of the following terms:
     one-electron contribution =     -38.14481247 Ry
     hartree contribution      =      20.36652653 Ry
     xc contribution           =     -12.14869347 Ry
     ewald contribution        =       7.18369722 Ry

     convergence has been achieved in   6 iterations

     Writing output data file /home/jesus/Documentos/Nanociencia_DFT/test.save/

     General routines

     Parallel routines

   This run was terminated on:   9:46: 4  17Mar2021

   JOB DONE.