     Program PWSCF v.6.6 starts on 31Mar2021 at 15: 9:56

     Fft bands division:     nmany     =       1
     Waiting for input...
     Reading input from standard input
Warning: card &CELL ignored
Warning: card   CELL_DYNAMICS='BFGS', ignored
Warning: card   CELL_DOFREE='ALL', ignored
Warning: card / ignored

     Current dimensions of program PWSCF are:
     Max number of different atomic species (ntypx) = 10
     Max number of k-points (npk) =  40000
     Max angular momentum in pseudopotentials (lmaxx) =  3
     file H.pbe-kjpaw_psl.1.0.0.UPF: wavefunction(s)  1S renormalized

     Subspace diagonalization in iterative solution of the eigenvalue problem:
     a serial algorithm will be used

     Message from routine setup:
     using ibrav=0 with symmetry is DISCOURAGED, use correct ibrav instead

     bravais-lattice index     =            0
     lattice parameter (alat)  =       7.3457  a.u.
     unit-cell volume          =    1765.6965 (a.u.)^3
     number of atoms/cell      =            4
     number of atomic types    =            2
     number of electrons       =        10.00
     number of Kohn-Sham states=            9
     kinetic-energy cutoff     =      35.0000  Ry
     charge density cutoff     =     210.0000  Ry
     convergence threshold     =      1.0E-06
     mixing beta               =       0.7000
     number of iterations used =            8  plain     mixing
     Exchange-correlation= SLA PW PBX PBC
                           (   1   4   3   4   0   0   0)

     celldm(1)=   7.345687  celldm(2)=   0.000000  celldm(3)=   0.000000
     celldm(4)=   0.000000  celldm(5)=   0.000000  celldm(6)=   0.000000

     crystal axes: (cart. coord. in units of alat)
               a(1) = (   0.500000   0.866000   0.000000 )
               a(2) = (  -0.500000   0.866000   0.000000 )
               a(3) = (   0.000000   0.000000   5.144000 )

     reciprocal axes: (cart. coord. in units 2 pi/alat)
               b(1) = (  1.000000  0.577367  0.000000 )
               b(2) = ( -1.000000  0.577367  0.000000 )
               b(3) = (  0.000000  0.000000  0.194401 )

     PseudoPot. # 1 for Si read from file:
     /home/jesus/Nanociencia_DFT/pseudopotenciales/Si.pbe-n-rrkjus_psl.1.0.0.UPF
     MD5 check sum: fa25574f73a70a4139f2adfbefec430c
     Pseudo is Ultrasoft + core correction, Zval =  4.0
     Generated using "atomic" code by A. Dal Corso v.6.3
     Using radial grid of 1141 points,  6 beta functions with:
                l(1) =   0
                l(2) =   0
                l(3) =   1
                l(4) =   1
                l(5) =   2
                l(6) =   2
     Q(r) pseudized with 0 coefficients

     PseudoPot. # 2 for H  read from file:
     /home/jesus/Nanociencia_DFT/pseudopotenciales/H.pbe-kjpaw_psl.1.0.0.UPF
     MD5 check sum: d81a744832360e4a8af0b0b5b123bc2a
     Pseudo is Projector augmented-wave, Zval =  1.0
     Generated using "atomic" code by A. Dal Corso v.6.3MaX
     Shape of augmentation charge: PSQ
     Using radial grid of  929 points,  2 beta functions with:
                l(1) =   0
                l(2) =   0
     Q(r) pseudized with 0 coefficients

     atomic species   valence    mass     pseudopotential
        Si             4.00    28.08550     Si( 1.00)
        H              1.00     1.00800     H ( 1.00)

      2 Sym. Ops. (no inversion) found

   Cartesian axes

     site n.     atom                  positions (alat units)
         1           H   tau(   1) = (   0.0000000   0.0000000   0.0000000  )
         2           Si  tau(   2) = (   0.0000000   0.0000000   0.3858000  )
         3           Si  tau(   3) = (   0.0000000   0.5767560   0.5709840  )
         4           H   tau(   4) = (   0.0000000   0.5767560   0.9567840  )

     number of k points=    57  Methfessel-Paxton smearing, width (Ry)=  0.0100
                       cart. coord. in units 2pi/alat
        k(    1) = (   0.0000000   0.0000000   0.0000000), wk =   0.0102041
        k(    2) = (  -0.0714286   0.0412405   0.0000000), wk =   0.0408163
        k(    3) = (  -0.1428571   0.0824810   0.0000000), wk =   0.0408163
        k(    4) = (  -0.2142857   0.1237215   0.0000000), wk =   0.0408163
        k(    5) = (  -0.2857143   0.1649621   0.0000000), wk =   0.0408163
        k(    6) = (  -0.3571429   0.2062026   0.0000000), wk =   0.0408163
        k(    7) = (  -0.4285714   0.2474431   0.0000000), wk =   0.0408163
        k(    8) = (   0.5000000  -0.2886836   0.0000000), wk =   0.0204082
        k(    9) = (   0.0000000   0.0824810   0.0000000), wk =   0.0204082
        k(   10) = (  -0.0714286   0.1237215   0.0000000), wk =   0.0408163
        k(   11) = (  -0.1428571   0.1649621   0.0000000), wk =   0.0408163
        k(   12) = (  -0.2142857   0.2062026   0.0000000), wk =   0.0408163
        k(   13) = (  -0.2857143   0.2474431   0.0000000), wk =   0.0408163
        k(   14) = (  -0.3571429   0.2886836   0.0000000), wk =   0.0408163
        k(   15) = (   0.5714286  -0.2474431   0.0000000), wk =   0.0408163
        k(   16) = (   0.5000000  -0.2062026   0.0000000), wk =   0.0408163
        k(   17) = (   0.4285714  -0.1649621   0.0000000), wk =   0.0408163
        k(   18) = (   0.3571429  -0.1237215   0.0000000), wk =   0.0408163
        k(   19) = (   0.2857143  -0.0824810   0.0000000), wk =   0.0408163
        k(   20) = (   0.2142857  -0.0412405   0.0000000), wk =   0.0408163
        k(   21) = (   0.1428571   0.0000000   0.0000000), wk =   0.0204082
        k(   22) = (   0.0000000   0.1649621   0.0000000), wk =   0.0204082
        k(   23) = (  -0.0714286   0.2062026   0.0000000), wk =   0.0408163
        k(   24) = (  -0.1428571   0.2474431   0.0000000), wk =   0.0408163
        k(   25) = (  -0.2142857   0.2886836   0.0000000), wk =   0.0408163
        k(   26) = (  -0.2857143   0.3299241   0.0000000), wk =   0.0408163
        k(   27) = (   0.6428571  -0.2062026   0.0000000), wk =   0.0408163
        k(   28) = (   0.5714286  -0.1649621   0.0000000), wk =   0.0408163
        k(   29) = (   0.5000000  -0.1237215   0.0000000), wk =   0.0408163
        k(   30) = (   0.4285714  -0.0824810   0.0000000), wk =   0.0408163
        k(   31) = (   0.3571429  -0.0412405   0.0000000), wk =   0.0408163
        k(   32) = (   0.2857143  -0.0000000   0.0000000), wk =   0.0204082
        k(   33) = (   0.0000000   0.2474431   0.0000000), wk =   0.0204082
        k(   34) = (  -0.0714286   0.2886836   0.0000000), wk =   0.0408163
        k(   35) = (  -0.1428571   0.3299241   0.0000000), wk =   0.0408163
        k(   36) = (  -0.2142857   0.3711646   0.0000000), wk =   0.0408163
        k(   37) = (   0.7142857  -0.1649621   0.0000000), wk =   0.0408163
        k(   38) = (   0.6428571  -0.1237215   0.0000000), wk =   0.0408163
        k(   39) = (   0.5714286  -0.0824810   0.0000000), wk =   0.0408163
        k(   40) = (   0.5000000  -0.0412405   0.0000000), wk =   0.0408163
        k(   41) = (   0.4285714  -0.0000000   0.0000000), wk =   0.0204082
        k(   42) = (   0.0000000   0.3299241   0.0000000), wk =   0.0204082
        k(   43) = (  -0.0714286   0.3711646   0.0000000), wk =   0.0408163
        k(   44) = (  -0.1428571   0.4124051   0.0000000), wk =   0.0408163
        k(   45) = (   0.7857143  -0.1237215   0.0000000), wk =   0.0408163
        k(   46) = (   0.7142857  -0.0824810   0.0000000), wk =   0.0408163
        k(   47) = (   0.6428571  -0.0412405   0.0000000), wk =   0.0408163
        k(   48) = (   0.5714286   0.0000000   0.0000000), wk =   0.0204082
        k(   49) = (   0.0000000   0.4124051   0.0000000), wk =   0.0204082
        k(   50) = (  -0.0714286   0.4536457   0.0000000), wk =   0.0408163
        k(   51) = (   0.8571429  -0.0824810   0.0000000), wk =   0.0408163
        k(   52) = (   0.7857143  -0.0412405   0.0000000), wk =   0.0408163
        k(   53) = (   0.7142857   0.0000000   0.0000000), wk =   0.0204082
        k(   54) = (   0.0000000   0.4948862   0.0000000), wk =   0.0204082
        k(   55) = (   0.9285714  -0.0412405   0.0000000), wk =   0.0408163
        k(   56) = (   0.8571429  -0.0000000   0.0000000), wk =   0.0204082
        k(   57) = (   0.0000000  -0.5773672   0.0000000), wk =   0.0102041

     Initial potential from superposition of free atoms

     starting charge    9.99886, renormalised to   10.00000

     negative rho (up, down):  1.007E-04 0.000E+00
     Starting wfcs are   10 randomized atomic wfcs
     Checking if some PAW data can be deallocated...

     Self-consistent Calculation

     iteration #  1     ecut=    35.00 Ry     beta= 0.70
     Davidson diagonalization with overlap
     ethr =  1.00E-02,  avg # of iterations =  3.6

     negative rho (up, down):  8.253E-05 0.000E+00

     total energy              =     -25.15095132 Ry
     estimated scf accuracy    <       0.16571723 Ry

[...]

     total energy              =     -25.16171333 Ry
     estimated scf accuracy    <       0.00000123 Ry

     iteration #  6     ecut=    35.00 Ry     beta= 0.70
     Davidson diagonalization with overlap
     ethr =  1.23E-08,  avg # of iterations =  2.1

     negative rho (up, down):  1.034E-04 0.000E+00

     End of self-consistent calculation

          k = 0.0000 0.0000 0.0000 (  6083 PWs)   bands (ev):

   -13.7031  -9.1429  -5.8759  -3.3873  -3.3717  -1.0437   0.5403   0.5571
     0.7945

          k =-0.0714 0.0412 0.0000 (  6118 PWs)   bands (ev):

[...]

          k =-0.0714 0.4536 0.0000 (  6191 PWs)   bands (ev):

[...]

          k = 0.0000-0.5774 0.0000 (  6174 PWs)   bands (ev):

   -11.6984 -10.2262  -6.9480  -6.0953  -4.7920  -1.1858   0.2953   1.3327
     3.0337

     the Fermi energy is    -3.3018 ev

!    total energy              =     -25.16171343 Ry
     estimated scf accuracy    <       0.00000038 Ry
     smearing contrib. (-TS)   =       0.00002825 Ry
     internal energy E=F+TS    =     -25.16174168 Ry

     The total energy is F=E-TS. E is the sum of the following terms:
     one-electron contribution =    -110.89052295 Ry
     hartree contribution      =      56.76160030 Ry
     xc contribution           =     -13.64713123 Ry
     ewald contribution        =      42.61459434 Ry
     one-center paw contrib.   =      -0.00028215 Ry

     convergence has been achieved in   6 iterations

     Writing output data file /home/jesus/Documentos/Nanociencia_DFT/silicano.save/

     General routines

     Parallel routines

   This run was terminated on:  15:10:51  31Mar2021

   JOB DONE.