     Program PWSCF v.6.6 starts on 31Mar2021 at 15:12:50

     Fft bands division:     nmany     =       1
     Waiting for input...
     Reading input from standard input
Warning: card &CELL ignored
Warning: card   CELL_DYNAMICS='BFGS', ignored
Warning: card   CELL_DOFREE='ALL', ignored
Warning: card / ignored

     Current dimensions of program PWSCF are:
     Max number of different atomic species (ntypx) = 10
     Max number of k-points (npk) =  40000
     Max angular momentum in pseudopotentials (lmaxx) =  3
     file H.pbe-kjpaw_psl.1.0.0.UPF: wavefunction(s)  1S renormalized

     Subspace diagonalization in iterative solution of the eigenvalue problem:
     a serial algorithm will be used

     Message from routine setup:
     using ibrav=0 with symmetry is DISCOURAGED, use correct ibrav instead

     bravais-lattice index     =            0
     lattice parameter (alat)  =       7.3457  a.u.
     unit-cell volume          =    1765.6965 (a.u.)^3
     number of atoms/cell      =            4
     number of atomic types    =            2
     number of electrons       =        10.00
     number of Kohn-Sham states=            9
     kinetic-energy cutoff     =      35.0000  Ry
     charge density cutoff     =     210.0000  Ry
     convergence threshold     =      1.0E-06
     mixing beta               =       0.7000
     number of iterations used =            8  plain     mixing
     Exchange-correlation= SLA PW PBX PBC
                           (   1   4   3   4   0   0   0)

     celldm(1)=   7.345687  celldm(2)=   0.000000  celldm(3)=   0.000000
     celldm(4)=   0.000000  celldm(5)=   0.000000  celldm(6)=   0.000000

     crystal axes: (cart. coord. in units of alat)
               a(1) = (   0.500000   0.866000   0.000000 )
               a(2) = (  -0.500000   0.866000   0.000000 )
               a(3) = (   0.000000   0.000000   5.144000 )

     reciprocal axes: (cart. coord. in units 2 pi/alat)
               b(1) = (  1.000000  0.577367  0.000000 )
               b(2) = ( -1.000000  0.577367  0.000000 )
               b(3) = (  0.000000  0.000000  0.194401 )

     PseudoPot. # 1 for Si read from file:
     /home/jesus/Nanociencia_DFT/pseudopotenciales/Si.pbe-n-rrkjus_psl.1.0.0.UPF
     MD5 check sum: fa25574f73a70a4139f2adfbefec430c
     Pseudo is Ultrasoft + core correction, Zval =  4.0
     Generated using "atomic" code by A. Dal Corso v.6.3
     Using radial grid of 1141 points,  6 beta functions with:
                l(1) =   0
                l(2) =   0
                l(3) =   1
                l(4) =   1
                l(5) =   2
                l(6) =   2
     Q(r) pseudized with 0 coefficients

     PseudoPot. # 2 for H  read from file:
     /home/jesus/Nanociencia_DFT/pseudopotenciales/H.pbe-kjpaw_psl.1.0.0.UPF
     MD5 check sum: d81a744832360e4a8af0b0b5b123bc2a
     Pseudo is Projector augmented-wave, Zval =  1.0
     Generated using "atomic" code by A. Dal Corso v.6.3MaX
     Shape of augmentation charge: PSQ
     Using radial grid of  929 points,  2 beta functions with:
                l(1) =   0
                l(2) =   0
     Q(r) pseudized with 0 coefficients

     atomic species   valence    mass     pseudopotential
        Si             4.00    28.08550     Si( 1.00)
        H              1.00     1.00800     H ( 1.00)

      2 Sym. Ops. (no inversion) found

   Cartesian axes

     site n.     atom                  positions (alat units)
         1           H   tau(   1) = (   0.0000000   0.0000000   0.0000000  )
         2           Si  tau(   2) = (   0.0000000   0.0000000   0.3858000  )
         3           Si  tau(   3) = (   0.0000000   0.5767560   0.5709840  )
         4           H   tau(   4) = (   0.0000000   0.5767560   0.9567840  )

     number of k points=    81  Methfessel-Paxton smearing, width (Ry)=  0.0100
                       cart. coord. in units 2pi/alat
        k(    1) = (   0.0000000   0.0000000   0.0000000), wk =   0.0069204
        k(    2) = (  -0.0588235   0.0339628   0.0000000), wk =   0.0276817
        k(    3) = (  -0.1176471   0.0679256   0.0000000), wk =   0.0276817
        k(    4) = (  -0.1764706   0.1018883   0.0000000), wk =   0.0276817
        k(    5) = (  -0.2352941   0.1358511   0.0000000), wk =   0.0276817
        k(    6) = (  -0.2941176   0.1698139   0.0000000), wk =   0.0276817
        k(    7) = (  -0.3529412   0.2037767   0.0000000), wk =   0.0276817
        k(    8) = (  -0.4117647   0.2377394   0.0000000), wk =   0.0276817
        k(    9) = (  -0.4705882   0.2717022   0.0000000), wk =   0.0276817
        k(   10) = (   0.0000000   0.0679256   0.0000000), wk =   0.0138408
        k(   11) = (  -0.0588235   0.1018883   0.0000000), wk =   0.0276817
        k(   12) = (  -0.1176471   0.1358511   0.0000000), wk =   0.0276817
        k(   13) = (  -0.1764706   0.1698139   0.0000000), wk =   0.0276817
        k(   14) = (  -0.2352941   0.2037767   0.0000000), wk =   0.0276817
        k(   15) = (  -0.2941176   0.2377394   0.0000000), wk =   0.0276817
        k(   16) = (  -0.3529412   0.2717022   0.0000000), wk =   0.0276817
        k(   17) = (  -0.4117647   0.3056650   0.0000000), wk =   0.0276817
        k(   18) = (   0.5294118  -0.2377394   0.0000000), wk =   0.0276817
        k(   19) = (   0.4705882  -0.2037767   0.0000000), wk =   0.0276817
        k(   20) = (   0.4117647  -0.1698139   0.0000000), wk =   0.0276817
        k(   21) = (   0.3529412  -0.1358511   0.0000000), wk =   0.0276817
        k(   22) = (   0.2941176  -0.1018883   0.0000000), wk =   0.0276817
        k(   23) = (   0.2352941  -0.0679256   0.0000000), wk =   0.0276817
        k(   24) = (   0.1764706  -0.0339628   0.0000000), wk =   0.0276817
        k(   25) = (   0.1176471  -0.0000000   0.0000000), wk =   0.0138408
        k(   26) = (   0.0000000   0.1358511   0.0000000), wk =   0.0138408
        k(   27) = (  -0.0588235   0.1698139   0.0000000), wk =   0.0276817
        k(   28) = (  -0.1176471   0.2037767   0.0000000), wk =   0.0276817
        k(   29) = (  -0.1764706   0.2377394   0.0000000), wk =   0.0276817
        k(   30) = (  -0.2352941   0.2717022   0.0000000), wk =   0.0276817
        k(   31) = (  -0.2941176   0.3056650   0.0000000), wk =   0.0276817
        k(   32) = (  -0.3529412   0.3396278   0.0000000), wk =   0.0276817
        k(   33) = (   0.5882353  -0.2037767   0.0000000), wk =   0.0276817
        k(   34) = (   0.5294118  -0.1698139   0.0000000), wk =   0.0276817
        k(   35) = (   0.4705882  -0.1358511   0.0000000), wk =   0.0276817
        k(   36) = (   0.4117647  -0.1018883   0.0000000), wk =   0.0276817
        k(   37) = (   0.3529412  -0.0679256   0.0000000), wk =   0.0276817
        k(   38) = (   0.2941176  -0.0339628   0.0000000), wk =   0.0276817
        k(   39) = (   0.2352941  -0.0000000   0.0000000), wk =   0.0138408
        k(   40) = (   0.0000000   0.2037767   0.0000000), wk =   0.0138408
        k(   41) = (  -0.0588235   0.2377394   0.0000000), wk =   0.0276817
        k(   42) = (  -0.1176471   0.2717022   0.0000000), wk =   0.0276817
        k(   43) = (  -0.1764706   0.3056650   0.0000000), wk =   0.0276817
        k(   44) = (  -0.2352941   0.3396278   0.0000000), wk =   0.0276817
        k(   45) = (  -0.2941176   0.3735905   0.0000000), wk =   0.0276817
        k(   46) = (   0.6470588  -0.1698139   0.0000000), wk =   0.0276817
        k(   47) = (   0.5882353  -0.1358511   0.0000000), wk =   0.0276817
        k(   48) = (   0.5294118  -0.1018883   0.0000000), wk =   0.0276817
        k(   49) = (   0.4705882  -0.0679256   0.0000000), wk =   0.0276817
        k(   50) = (   0.4117647  -0.0339628   0.0000000), wk =   0.0276817
        k(   51) = (   0.3529412  -0.0000000   0.0000000), wk =   0.0138408
        k(   52) = (   0.0000000   0.2717022   0.0000000), wk =   0.0138408
        k(   53) = (  -0.0588235   0.3056650   0.0000000), wk =   0.0276817
        k(   54) = (  -0.1176471   0.3396278   0.0000000), wk =   0.0276817
        k(   55) = (  -0.1764706   0.3735905   0.0000000), wk =   0.0276817
        k(   56) = (  -0.2352941   0.4075533   0.0000000), wk =   0.0276817
        k(   57) = (   0.7058824  -0.1358511   0.0000000), wk =   0.0276817
        k(   58) = (   0.6470588  -0.1018883   0.0000000), wk =   0.0276817
        k(   59) = (   0.5882353  -0.0679256   0.0000000), wk =   0.0276817
        k(   60) = (   0.5294118  -0.0339628   0.0000000), wk =   0.0276817
[...]
        k(   67) = (   0.7058824  -0.0679256   0.0000000), wk =   0.0276817
        k(   68) = (   0.6470588  -0.0339628   0.0000000), wk =   0.0276817
        k(   69) = (   0.5882353   0.0000000   0.0000000), wk =   0.0138408
        k(   70) = (   0.0000000   0.4075533   0.0000000), wk =   0.0138408
        k(   71) = (  -0.0588235   0.4415161   0.0000000), wk =   0.0276817
        k(   72) = (  -0.1176471   0.4754789   0.0000000), wk =   0.0276817
        k(   73) = (   0.8235294  -0.0679256   0.0000000), wk =   0.0276817
        k(   74) = (   0.7647059  -0.0339628   0.0000000), wk =   0.0276817
        k(   75) = (   0.7058824   0.0000000   0.0000000), wk =   0.0138408
        k(   76) = (   0.0000000   0.4754789   0.0000000), wk =   0.0138408
        k(   77) = (  -0.0588235   0.5094417   0.0000000), wk =   0.0276817
        k(   78) = (   0.8823529  -0.0339628   0.0000000), wk =   0.0276817
        k(   79) = (   0.8235294   0.0000000   0.0000000), wk =   0.0138408
        k(   80) = (   0.0000000   0.5434044   0.0000000), wk =   0.0138408
        k(   81) = (   0.9411765   0.0000000   0.0000000), wk =   0.0138408

     Initial potential from superposition of free atoms

     starting charge    9.99886, renormalised to   10.00000

     negative rho (up, down):  1.007E-04 0.000E+00
     Starting wfcs are   10 randomized atomic wfcs
     Checking if some PAW data can be deallocated...

     Self-consistent Calculation

     iteration #  1     ecut=    35.00 Ry     beta= 0.70
     Davidson diagonalization with overlap
     ethr =  1.00E-02,  avg # of iterations =  3.6

     negative rho (up, down):  8.270E-05 0.000E+00

     total energy              =     -25.15092884 Ry
     estimated scf accuracy    <       0.16575154 Ry

[...]

     iteration #  3     ecut=    35.00 Ry     beta= 0.70
     Davidson diagonalization with overlap
     c_bands:  1 eigenvalues not converged
     ethr =  4.61E-05,  avg # of iterations =  9.3

[...]

     iteration #  4     ecut=    35.00 Ry     beta= 0.70
     Davidson diagonalization with overlap
     c_bands:  1 eigenvalues not converged
     ethr =  2.56E-06,  avg # of iterations =  6.4

[...]

     total energy              =     -25.16171392 Ry
     estimated scf accuracy    <       0.00000175 Ry

     iteration #  6     ecut=    35.00 Ry     beta= 0.70
     Davidson diagonalization with overlap
     ethr =  1.75E-08,  avg # of iterations =  2.0

     negative rho (up, down):  1.034E-04 0.000E+00

     End of self-consistent calculation

          k = 0.0000 0.0000 0.0000 (  6083 PWs)   bands (ev):

   -13.7038  -9.1439  -5.8767  -3.3880  -3.3723  -1.0442   0.5396   0.5564
     0.7943

          k =-0.0588 0.0340 0.0000 (  6116 PWs)   bands (ev):

[...]

          k =-0.0588 0.5094 0.0000 (  6186 PWs)   bands (ev):

[...]

          k = 0.9412 0.0000 0.0000 (  6172 PWs)   bands (ev):

   -11.6706 -10.2344  -6.9325  -6.1015  -4.9756  -0.9131   0.3167   1.3418
     2.7797

     the Fermi energy is    -3.3065 ev

!    total energy              =     -25.16171410 Ry
     estimated scf accuracy    <       0.00000042 Ry
     smearing contrib. (-TS)   =       0.00002276 Ry
     internal energy E=F+TS    =     -25.16173686 Ry

     The total energy is F=E-TS. E is the sum of the following terms:
     one-electron contribution =    -110.89081741 Ry
     hartree contribution      =      56.76196056 Ry
     xc contribution           =     -13.64719220 Ry
     ewald contribution        =      42.61459434 Ry
     one-center paw contrib.   =      -0.00028215 Ry

     convergence has been achieved in   6 iterations

     Writing output data file /home/jesus/Documentos/Nanociencia_DFT/silicano.save/

     General routines

     Parallel routines

   This run was terminated on:  15:14: 3  31Mar2021

   JOB DONE.